tmp.cnf
p cnf 98 221
-1 57 51 0
1 -57 0
1 -51 0
-2 58 50 52 0
2 -58 0
2 -50 0
2 -52 0
-3 59 51 53 0
3 -59 0
3 -51 0
3 -53 0
-4 60 52 54 0
4 -60 0
4 -52 0
4 -54 0
-5 61 53 55 0
5 -61 0
5 -53 0
5 -55 0
-6 62 54 56 0
6 -62 0
6 -54 0
6 -56 0
-7 63 55 0
7 -63 0
7 -55 0
-8 50 64 58 0
8 -50 0
8 -64 0
8 -58 0
-9 51 65 57 59 0
9 -51 0
9 -65 0
9 -57 0
9 -59 0
-10 52 66 58 60 0
10 -52 0
10 -66 0
10 -58 0
10 -60 0
-11 53 67 59 61 0
11 -53 0
11 -67 0
11 -59 0
11 -61 0
-12 54 68 60 62 0
12 -54 0
12 -68 0
12 -60 0
12 -62 0
-13 55 69 61 63 0
13 -55 0
13 -69 0
13 -61 0
13 -63 0
-14 56 70 62 0
14 -56 0
14 -70 0
14 -62 0
-15 57 71 65 0
15 -57 0
15 -71 0
15 -65 0
-16 58 72 64 66 0
16 -58 0
16 -72 0
16 -64 0
16 -66 0
-17 59 73 65 67 0
17 -59 0
17 -73 0
17 -65 0
17 -67 0
-18 60 74 66 68 0
18 -60 0
18 -74 0
18 -66 0
18 -68 0
-19 61 75 67 69 0
19 -61 0
19 -75 0
19 -67 0
19 -69 0
-20 62 76 68 70 0
20 -62 0
20 -76 0
20 -68 0
20 -70 0
-21 63 77 69 0
21 -63 0
21 -77 0
21 -69 0
-22 64 78 72 0
22 -64 0
22 -78 0
22 -72 0
-23 65 79 71 73 0
23 -65 0
23 -79 0
23 -71 0
23 -73 0
-24 66 80 72 74 0
24 -66 0
24 -80 0
24 -72 0
24 -74 0
-25 67 81 73 75 0
25 -67 0
25 -81 0
25 -73 0
25 -75 0
-26 68 82 74 76 0
26 -68 0
26 -82 0
26 -74 0
26 -76 0
-27 69 83 75 77 0
27 -69 0
27 -83 0
27 -75 0
27 -77 0
-28 70 84 76 0
28 -70 0
28 -84 0
28 -76 0
-29 71 85 79 0
29 -71 0
29 -85 0
29 -79 0
-30 72 86 78 80 0
30 -72 0
30 -86 0
30 -78 0
30 -80 0
-31 73 87 79 81 0
31 -73 0
31 -87 0
31 -79 0
31 -81 0
-32 74 88 80 82 0
32 -74 0
32 -88 0
32 -80 0
32 -82 0
-33 75 89 81 83 0
33 -75 0
33 -89 0
33 -81 0
33 -83 0
-34 76 90 82 84 0
34 -76 0
34 -90 0
34 -82 0
34 -84 0
-35 77 91 83 0
35 -77 0
35 -91 0
35 -83 0
-36 78 92 86 0
36 -78 0
36 -92 0
36 -86 0
-37 79 93 85 87 0
37 -79 0
37 -93 0
37 -85 0
37 -87 0
-38 80 94 86 88 0
38 -80 0
38 -94 0
38 -86 0
38 -88 0
-39 81 95 87 89 0
39 -81 0
39 -95 0
39 -87 0
39 -89 0
-40 82 96 88 90 0
40 -82 0
40 -96 0
40 -88 0
40 -90 0
-41 83 97 89 91 0
41 -83 0
41 -97 0
41 -89 0
41 -91 0
-42 84 98 90 0
42 -84 0
42 -98 0
42 -90 0
-43 85 93 0
43 -85 0
43 -93 0
-44 86 92 94 0
44 -86 0
44 -92 0
44 -94 0
-45 87 93 95 0
45 -87 0
45 -93 0
45 -95 0
-46 88 94 96 0
46 -88 0
46 -94 0
46 -96 0
-47 89 95 97 0
47 -89 0
47 -95 0
47 -97 0
-48 90 96 98 0
48 -90 0
48 -96 0
48 -98 0
-49 91 97 0
49 -91 0
49 -97 0
-1 0
-8 0
15 0
71 0
