tmp.txt
98
2 0 1
2 0 1
2 0 1
2 0 1
2 0 1
2 0 1
2 0 1
2 0 1
2 0 1
2 0 1
2 0 1
2 0 1
2 0 1
2 0 1
2 0 1
2 0 1
2 0 1
2 0 1
2 0 1
2 0 1
2 0 1
2 0 1
2 0 1
2 0 1
2 0 1
2 0 1
2 0 1
2 0 1
2 0 1
2 0 1
2 0 1
2 0 1
2 0 1
2 0 1
2 0 1
2 0 1
2 0 1
2 0 1
2 0 1
2 0 1
2 0 1
2 0 1
2 0 1
2 0 1
2 0 1
2 0 1
2 0 1
2 0 1
2 0 1
2 0 1
2 0 1
2 0 1
2 0 1
2 0 1
2 0 1
2 0 1
2 0 1
2 0 1
2 0 1
2 0 1
2 0 1
2 0 1
2 0 1
2 0 1
2 0 1
2 0 1
2 0 1
2 0 1
2 0 1
2 0 1
2 0 1
2 0 1
2 0 1
2 0 1
2 0 1
2 0 1
2 0 1
2 0 1
2 0 1
2 0 1
2 0 1
2 0 1
2 0 1
2 0 1
2 0 1
2 0 1
2 0 1
2 0 1
2 0 1
2 0 1
2 0 1
2 0 1
2 0 1
2 0 1
2 0 1
2 0 1
2 0 1
2 0 1
221
V
3 1 57 51
7 0 0 0 0 0 1 0 1 0 0 1 1 1 0 1 1 1 0 1 1 1
V
2 1 57
3 0 0 1 0 1 1
V
2 1 51
3 0 0 1 0 1 1
V
4 2 58 50 52
15 0 0 0 0 0 0 0 1 0 0 1 0 0 0 1 1 0 1 0 0 0 1 0 1 0 1 1 0 0 1 1 1 1 0 0 1 1 0 1 0 1 0 1 1 1 1 0 0 1 1 0 1 1 1 1 0 1 1 1 1
V
2 2 58
3 0 0 1 0 1 1
V
2 2 50
3 0 0 1 0 1 1
V
2 2 52
3 0 0 1 0 1 1
V
4 3 59 51 53
15 0 0 0 0 0 0 0 1 0 0 1 0 0 0 1 1 0 1 0 0 0 1 0 1 0 1 1 0 0 1 1 1 1 0 0 1 1 0 1 0 1 0 1 1 1 1 0 0 1 1 0 1 1 1 1 0 1 1 1 1
V
2 3 59
3 0 0 1 0 1 1
V
2 3 51
3 0 0 1 0 1 1
V
2 3 53
3 0 0 1 0 1 1
V
4 4 60 52 54
15 0 0 0 0 0 0 0 1 0 0 1 0 0 0 1 1 0 1 0 0 0 1 0 1 0 1 1 0 0 1 1 1 1 0 0 1 1 0 1 0 1 0 1 1 1 1 0 0 1 1 0 1 1 1 1 0 1 1 1 1
V
2 4 60
3 0 0 1 0 1 1
V
2 4 52
3 0 0 1 0 1 1
V
2 4 54
3 0 0 1 0 1 1
V
4 5 61 53 55
15 0 0 0 0 0 0 0 1 0 0 1 0 0 0 1 1 0 1 0 0 0 1 0 1 0 1 1 0 0 1 1 1 1 0 0 1 1 0 1 0 1 0 1 1 1 1 0 0 1 1 0 1 1 1 1 0 1 1 1 1
V
2 5 61
3 0 0 1 0 1 1
V
2 5 53
3 0 0 1 0 1 1
V
2 5 55
3 0 0 1 0 1 1
V
4 6 62 54 56
15 0 0 0 0 0 0 0 1 0 0 1 0 0 0 1 1 0 1 0 0 0 1 0 1 0 1 1 0 0 1 1 1 1 0 0 1 1 0 1 0 1 0 1 1 1 1 0 0 1 1 0 1 1 1 1 0 1 1 1 1
V
2 6 62
3 0 0 1 0 1 1
V
2 6 54
3 0 0 1 0 1 1
V
2 6 56
3 0 0 1 0 1 1
V
3 7 63 55
7 0 0 0 0 0 1 0 1 0 0 1 1 1 0 1 1 1 0 1 1 1
V
2 7 63
3 0 0 1 0 1 1
V
2 7 55
3 0 0 1 0 1 1
V
4 8 50 64 58
15 0 0 0 0 0 0 0 1 0 0 1 0 0 0 1 1 0 1 0 0 0 1 0 1 0 1 1 0 0 1 1 1 1 0 0 1 1 0 1 0 1 0 1 1 1 1 0 0 1 1 0 1 1 1 1 0 1 1 1 1
V
2 8 50
3 0 0 1 0 1 1
V
2 8 64
3 0 0 1 0 1 1
V
2 8 58
3 0 0 1 0 1 1
V
5 9 51 65 57 59
31 0 0 0 0 0 0 0 0 0 1 0 0 0 1 0 0 0 0 1 1 0 0 1 0 0 0 0 1 0 1 0 0 1 1 0 0 0 1 1 1 0 1 0 0 0 0 1 0 0 1 0 1 0 1 0 0 1 0 1 1 0 1 1 0 0 0 1 1 0 1 0 1 1 1 0 0 1 1 1 1 1 0 0 0 1 1 0 0 1 0 1 0 0 1 1 1 0 1 0 0 1 0 1 0 1 1 0 1 1 0 1 0 1 1 1 1 1 0 0 0 1 1 0 0 1 1 1 0 1 0 1 1 0 1 1 1 1 1 0 0 1 1 1 0 1 1 1 1 1 0 1 1 1 1 1
V
2 9 51
3 0 0 1 0 1 1
V
2 9 65
3 0 0 1 0 1 1
V
2 9 57
3 0 0 1 0 1 1
V
2 9 59
3 0 0 1 0 1 1
V
5 10 52 66 58 60
31 0 0 0 0 0 0 0 0 0 1 0 0 0 1 0 0 0 0 1 1 0 0 1 0 0 0 0 1 0 1 0 0 1 1 0 0 0 1 1 1 0 1 0 0 0 0 1 0 0 1 0 1 0 1 0 0 1 0 1 1 0 1 1 0 0 0 1 1 0 1 0 1 1 1 0 0 1 1 1 1 1 0 0 0 1 1 0 0 1 0 1 0 0 1 1 1 0 1 0 0 1 0 1 0 1 1 0 1 1 0 1 0 1 1 1 1 1 0 0 0 1 1 0 0 1 1 1 0 1 0 1 1 0 1 1 1 1 1 0 0 1 1 1 0 1 1 1 1 1 0 1 1 1 1 1
V
2 10 52
3 0 0 1 0 1 1
V
2 10 66
3 0 0 1 0 1 1
V
2 10 58
3 0 0 1 0 1 1
V
2 10 60
3 0 0 1 0 1 1
V
5 11 53 67 59 61
31 0 0 0 0 0 0 0 0 0 1 0 0 0 1 0 0 0 0 1 1 0 0 1 0 0 0 0 1 0 1 0 0 1 1 0 0 0 1 1 1 0 1 0 0 0 0 1 0 0 1 0 1 0 1 0 0 1 0 1 1 0 1 1 0 0 0 1 1 0 1 0 1 1 1 0 0 1 1 1 1 1 0 0 0 1 1 0 0 1 0 1 0 0 1 1 1 0 1 0 0 1 0 1 0 1 1 0 1 1 0 1 0 1 1 1 1 1 0 0 0 1 1 0 0 1 1 1 0 1 0 1 1 0 1 1 1 1 1 0 0 1 1 1 0 1 1 1 1 1 0 1 1 1 1 1
V
2 11 53
3 0 0 1 0 1 1
V
2 11 67
3 0 0 1 0 1 1
V
2 11 59
3 0 0 1 0 1 1
V
2 11 61
3 0 0 1 0 1 1
V
5 12 54 68 60 62
31 0 0 0 0 0 0 0 0 0 1 0 0 0 1 0 0 0 0 1 1 0 0 1 0 0 0 0 1 0 1 0 0 1 1 0 0 0 1 1 1 0 1 0 0 0 0 1 0 0 1 0 1 0 1 0 0 1 0 1 1 0 1 1 0 0 0 1 1 0 1 0 1 1 1 0 0 1 1 1 1 1 0 0 0 1 1 0 0 1 0 1 0 0 1 1 1 0 1 0 0 1 0 1 0 1 1 0 1 1 0 1 0 1 1 1 1 1 0 0 0 1 1 0 0 1 1 1 0 1 0 1 1 0 1 1 1 1 1 0 0 1 1 1 0 1 1 1 1 1 0 1 1 1 1 1
V
2 12 54
3 0 0 1 0 1 1
V
2 12 68
3 0 0 1 0 1 1
V
2 12 60
3 0 0 1 0 1 1
V
2 12 62
3 0 0 1 0 1 1
V
5 13 55 69 61 63
31 0 0 0 0 0 0 0 0 0 1 0 0 0 1 0 0 0 0 1 1 0 0 1 0 0 0 0 1 0 1 0 0 1 1 0 0 0 1 1 1 0 1 0 0 0 0 1 0 0 1 0 1 0 1 0 0 1 0 1 1 0 1 1 0 0 0 1 1 0 1 0 1 1 1 0 0 1 1 1 1 1 0 0 0 1 1 0 0 1 0 1 0 0 1 1 1 0 1 0 0 1 0 1 0 1 1 0 1 1 0 1 0 1 1 1 1 1 0 0 0 1 1 0 0 1 1 1 0 1 0 1 1 0 1 1 1 1 1 0 0 1 1 1 0 1 1 1 1 1 0 1 1 1 1 1
V
2 13 55
3 0 0 1 0 1 1
V
2 13 69
3 0 0 1 0 1 1
V
2 13 61
3 0 0 1 0 1 1
V
2 13 63
3 0 0 1 0 1 1
V
4 14 56 70 62
15 0 0 0 0 0 0 0 1 0 0 1 0 0 0 1 1 0 1 0 0 0 1 0 1 0 1 1 0 0 1 1 1 1 0 0 1 1 0 1 0 1 0 1 1 1 1 0 0 1 1 0 1 1 1 1 0 1 1 1 1
V
2 14 56
3 0 0 1 0 1 1
V
2 14 70
3 0 0 1 0 1 1
V
2 14 62
3 0 0 1 0 1 1
V
4 15 57 71 65
15 0 0 0 0 0 0 0 1 0 0 1 0 0 0 1 1 0 1 0 0 0 1 0 1 0 1 1 0 0 1 1 1 1 0 0 1 1 0 1 0 1 0 1 1 1 1 0 0 1 1 0 1 1 1 1 0 1 1 1 1
V
2 15 57
3 0 0 1 0 1 1
V
2 15 71
3 0 0 1 0 1 1
V
2 15 65
3 0 0 1 0 1 1
V
5 16 58 72 64 66
31 0 0 0 0 0 0 0 0 0 1 0 0 0 1 0 0 0 0 1 1 0 0 1 0 0 0 0 1 0 1 0 0 1 1 0 0 0 1 1 1 0 1 0 0 0 0 1 0 0 1 0 1 0 1 0 0 1 0 1 1 0 1 1 0 0 0 1 1 0 1 0 1 1 1 0 0 1 1 1 1 1 0 0 0 1 1 0 0 1 0 1 0 0 1 1 1 0 1 0 0 1 0 1 0 1 1 0 1 1 0 1 0 1 1 1 1 1 0 0 0 1 1 0 0 1 1 1 0 1 0 1 1 0 1 1 1 1 1 0 0 1 1 1 0 1 1 1 1 1 0 1 1 1 1 1
V
2 16 58
3 0 0 1 0 1 1
V
2 16 72
3 0 0 1 0 1 1
V
2 16 64
3 0 0 1 0 1 1
V
2 16 66
3 0 0 1 0 1 1
V
5 17 59 73 65 67
31 0 0 0 0 0 0 0 0 0 1 0 0 0 1 0 0 0 0 1 1 0 0 1 0 0 0 0 1 0 1 0 0 1 1 0 0 0 1 1 1 0 1 0 0 0 0 1 0 0 1 0 1 0 1 0 0 1 0 1 1 0 1 1 0 0 0 1 1 0 1 0 1 1 1 0 0 1 1 1 1 1 0 0 0 1 1 0 0 1 0 1 0 0 1 1 1 0 1 0 0 1 0 1 0 1 1 0 1 1 0 1 0 1 1 1 1 1 0 0 0 1 1 0 0 1 1 1 0 1 0 1 1 0 1 1 1 1 1 0 0 1 1 1 0 1 1 1 1 1 0 1 1 1 1 1
V
2 17 59
3 0 0 1 0 1 1
V
2 17 73
3 0 0 1 0 1 1
V
2 17 65
3 0 0 1 0 1 1
V
2 17 67
3 0 0 1 0 1 1
V
5 18 60 74 66 68
31 0 0 0 0 0 0 0 0 0 1 0 0 0 1 0 0 0 0 1 1 0 0 1 0 0 0 0 1 0 1 0 0 1 1 0 0 0 1 1 1 0 1 0 0 0 0 1 0 0 1 0 1 0 1 0 0 1 0 1 1 0 1 1 0 0 0 1 1 0 1 0 1 1 1 0 0 1 1 1 1 1 0 0 0 1 1 0 0 1 0 1 0 0 1 1 1 0 1 0 0 1 0 1 0 1 1 0 1 1 0 1 0 1 1 1 1 1 0 0 0 1 1 0 0 1 1 1 0 1 0 1 1 0 1 1 1 1 1 0 0 1 1 1 0 1 1 1 1 1 0 1 1 1 1 1
V
2 18 60
3 0 0 1 0 1 1
V
2 18 74
3 0 0 1 0 1 1
V
2 18 66
3 0 0 1 0 1 1
V
2 18 68
3 0 0 1 0 1 1
V
5 19 61 75 67 69
31 0 0 0 0 0 0 0 0 0 1 0 0 0 1 0 0 0 0 1 1 0 0 1 0 0 0 0 1 0 1 0 0 1 1 0 0 0 1 1 1 0 1 0 0 0 0 1 0 0 1 0 1 0 1 0 0 1 0 1 1 0 1 1 0 0 0 1 1 0 1 0 1 1 1 0 0 1 1 1 1 1 0 0 0 1 1 0 0 1 0 1 0 0 1 1 1 0 1 0 0 1 0 1 0 1 1 0 1 1 0 1 0 1 1 1 1 1 0 0 0 1 1 0 0 1 1 1 0 1 0 1 1 0 1 1 1 1 1 0 0 1 1 1 0 1 1 1 1 1 0 1 1 1 1 1
V
2 19 61
3 0 0 1 0 1 1
V
2 19 75
3 0 0 1 0 1 1
V
2 19 67
3 0 0 1 0 1 1
V
2 19 69
3 0 0 1 0 1 1
V
5 20 62 76 68 70
31 0 0 0 0 0 0 0 0 0 1 0 0 0 1 0 0 0 0 1 1 0 0 1 0 0 0 0 1 0 1 0 0 1 1 0 0 0 1 1 1 0 1 0 0 0 0 1 0 0 1 0 1 0 1 0 0 1 0 1 1 0 1 1 0 0 0 1 1 0 1 0 1 1 1 0 0 1 1 1 1 1 0 0 0 1 1 0 0 1 0 1 0 0 1 1 1 0 1 0 0 1 0 1 0 1 1 0 1 1 0 1 0 1 1 1 1 1 0 0 0 1 1 0 0 1 1 1 0 1 0 1 1 0 1 1 1 1 1 0 0 1 1 1 0 1 1 1 1 1 0 1 1 1 1 1
V
2 20 62
3 0 0 1 0 1 1
V
2 20 76
3 0 0 1 0 1 1
V
2 20 68
3 0 0 1 0 1 1
V
2 20 70
3 0 0 1 0 1 1
V
4 21 63 77 69
15 0 0 0 0 0 0 0 1 0 0 1 0 0 0 1 1 0 1 0 0 0 1 0 1 0 1 1 0 0 1 1 1 1 0 0 1 1 0 1 0 1 0 1 1 1 1 0 0 1 1 0 1 1 1 1 0 1 1 1 1
V
2 21 63
3 0 0 1 0 1 1
V
2 21 77
3 0 0 1 0 1 1
V
2 21 69
3 0 0 1 0 1 1
V
4 22 64 78 72
15 0 0 0 0 0 0 0 1 0 0 1 0 0 0 1 1 0 1 0 0 0 1 0 1 0 1 1 0 0 1 1 1 1 0 0 1 1 0 1 0 1 0 1 1 1 1 0 0 1 1 0 1 1 1 1 0 1 1 1 1
V
2 22 64
3 0 0 1 0 1 1
V
2 22 78
3 0 0 1 0 1 1
V
2 22 72
3 0 0 1 0 1 1
V
5 23 65 79 71 73
31 0 0 0 0 0 0 0 0 0 1 0 0 0 1 0 0 0 0 1 1 0 0 1 0 0 0 0 1 0 1 0 0 1 1 0 0 0 1 1 1 0 1 0 0 0 0 1 0 0 1 0 1 0 1 0 0 1 0 1 1 0 1 1 0 0 0 1 1 0 1 0 1 1 1 0 0 1 1 1 1 1 0 0 0 1 1 0 0 1 0 1 0 0 1 1 1 0 1 0 0 1 0 1 0 1 1 0 1 1 0 1 0 1 1 1 1 1 0 0 0 1 1 0 0 1 1 1 0 1 0 1 1 0 1 1 1 1 1 0 0 1 1 1 0 1 1 1 1 1 0 1 1 1 1 1
V
2 23 65
3 0 0 1 0 1 1
V
2 23 79
3 0 0 1 0 1 1
V
2 23 71
3 0 0 1 0 1 1
V
2 23 73
3 0 0 1 0 1 1
V
5 24 66 80 72 74
31 0 0 0 0 0 0 0 0 0 1 0 0 0 1 0 0 0 0 1 1 0 0 1 0 0 0 0 1 0 1 0 0 1 1 0 0 0 1 1 1 0 1 0 0 0 0 1 0 0 1 0 1 0 1 0 0 1 0 1 1 0 1 1 0 0 0 1 1 0 1 0 1 1 1 0 0 1 1 1 1 1 0 0 0 1 1 0 0 1 0 1 0 0 1 1 1 0 1 0 0 1 0 1 0 1 1 0 1 1 0 1 0 1 1 1 1 1 0 0 0 1 1 0 0 1 1 1 0 1 0 1 1 0 1 1 1 1 1 0 0 1 1 1 0 1 1 1 1 1 0 1 1 1 1 1
V
2 24 66
3 0 0 1 0 1 1
V
2 24 80
3 0 0 1 0 1 1
V
2 24 72
3 0 0 1 0 1 1
V
2 24 74
3 0 0 1 0 1 1
V
5 25 67 81 73 75
31 0 0 0 0 0 0 0 0 0 1 0 0 0 1 0 0 0 0 1 1 0 0 1 0 0 0 0 1 0 1 0 0 1 1 0 0 0 1 1 1 0 1 0 0 0 0 1 0 0 1 0 1 0 1 0 0 1 0 1 1 0 1 1 0 0 0 1 1 0 1 0 1 1 1 0 0 1 1 1 1 1 0 0 0 1 1 0 0 1 0 1 0 0 1 1 1 0 1 0 0 1 0 1 0 1 1 0 1 1 0 1 0 1 1 1 1 1 0 0 0 1 1 0 0 1 1 1 0 1 0 1 1 0 1 1 1 1 1 0 0 1 1 1 0 1 1 1 1 1 0 1 1 1 1 1
V
2 25 67
3 0 0 1 0 1 1
V
2 25 81
3 0 0 1 0 1 1
V
2 25 73
3 0 0 1 0 1 1
V
2 25 75
3 0 0 1 0 1 1
V
5 26 68 82 74 76
31 0 0 0 0 0 0 0 0 0 1 0 0 0 1 0 0 0 0 1 1 0 0 1 0 0 0 0 1 0 1 0 0 1 1 0 0 0 1 1 1 0 1 0 0 0 0 1 0 0 1 0 1 0 1 0 0 1 0 1 1 0 1 1 0 0 0 1 1 0 1 0 1 1 1 0 0 1 1 1 1 1 0 0 0 1 1 0 0 1 0 1 0 0 1 1 1 0 1 0 0 1 0 1 0 1 1 0 1 1 0 1 0 1 1 1 1 1 0 0 0 1 1 0 0 1 1 1 0 1 0 1 1 0 1 1 1 1 1 0 0 1 1 1 0 1 1 1 1 1 0 1 1 1 1 1
V
2 26 68
3 0 0 1 0 1 1
V
2 26 82
3 0 0 1 0 1 1
V
2 26 74
3 0 0 1 0 1 1
V
2 26 76
3 0 0 1 0 1 1
V
5 27 69 83 75 77
31 0 0 0 0 0 0 0 0 0 1 0 0 0 1 0 0 0 0 1 1 0 0 1 0 0 0 0 1 0 1 0 0 1 1 0 0 0 1 1 1 0 1 0 0 0 0 1 0 0 1 0 1 0 1 0 0 1 0 1 1 0 1 1 0 0 0 1 1 0 1 0 1 1 1 0 0 1 1 1 1 1 0 0 0 1 1 0 0 1 0 1 0 0 1 1 1 0 1 0 0 1 0 1 0 1 1 0 1 1 0 1 0 1 1 1 1 1 0 0 0 1 1 0 0 1 1 1 0 1 0 1 1 0 1 1 1 1 1 0 0 1 1 1 0 1 1 1 1 1 0 1 1 1 1 1
V
2 27 69
3 0 0 1 0 1 1
V
2 27 83
3 0 0 1 0 1 1
V
2 27 75
3 0 0 1 0 1 1
V
2 27 77
3 0 0 1 0 1 1
V
4 28 70 84 76
15 0 0 0 0 0 0 0 1 0 0 1 0 0 0 1 1 0 1 0 0 0 1 0 1 0 1 1 0 0 1 1 1 1 0 0 1 1 0 1 0 1 0 1 1 1 1 0 0 1 1 0 1 1 1 1 0 1 1 1 1
V
2 28 70
3 0 0 1 0 1 1
V
2 28 84
3 0 0 1 0 1 1
V
2 28 76
3 0 0 1 0 1 1
V
4 29 71 85 79
15 0 0 0 0 0 0 0 1 0 0 1 0 0 0 1 1 0 1 0 0 0 1 0 1 0 1 1 0 0 1 1 1 1 0 0 1 1 0 1 0 1 0 1 1 1 1 0 0 1 1 0 1 1 1 1 0 1 1 1 1
V
2 29 71
3 0 0 1 0 1 1
V
2 29 85
3 0 0 1 0 1 1
V
2 29 79
3 0 0 1 0 1 1
V
5 30 72 86 78 80
31 0 0 0 0 0 0 0 0 0 1 0 0 0 1 0 0 0 0 1 1 0 0 1 0 0 0 0 1 0 1 0 0 1 1 0 0 0 1 1 1 0 1 0 0 0 0 1 0 0 1 0 1 0 1 0 0 1 0 1 1 0 1 1 0 0 0 1 1 0 1 0 1 1 1 0 0 1 1 1 1 1 0 0 0 1 1 0 0 1 0 1 0 0 1 1 1 0 1 0 0 1 0 1 0 1 1 0 1 1 0 1 0 1 1 1 1 1 0 0 0 1 1 0 0 1 1 1 0 1 0 1 1 0 1 1 1 1 1 0 0 1 1 1 0 1 1 1 1 1 0 1 1 1 1 1
V
2 30 72
3 0 0 1 0 1 1
V
2 30 86
3 0 0 1 0 1 1
V
2 30 78
3 0 0 1 0 1 1
V
2 30 80
3 0 0 1 0 1 1
V
5 31 73 87 79 81
31 0 0 0 0 0 0 0 0 0 1 0 0 0 1 0 0 0 0 1 1 0 0 1 0 0 0 0 1 0 1 0 0 1 1 0 0 0 1 1 1 0 1 0 0 0 0 1 0 0 1 0 1 0 1 0 0 1 0 1 1 0 1 1 0 0 0 1 1 0 1 0 1 1 1 0 0 1 1 1 1 1 0 0 0 1 1 0 0 1 0 1 0 0 1 1 1 0 1 0 0 1 0 1 0 1 1 0 1 1 0 1 0 1 1 1 1 1 0 0 0 1 1 0 0 1 1 1 0 1 0 1 1 0 1 1 1 1 1 0 0 1 1 1 0 1 1 1 1 1 0 1 1 1 1 1
V
2 31 73
3 0 0 1 0 1 1
V
2 31 87
3 0 0 1 0 1 1
V
2 31 79
3 0 0 1 0 1 1
V
2 31 81
3 0 0 1 0 1 1
V
5 32 74 88 80 82
31 0 0 0 0 0 0 0 0 0 1 0 0 0 1 0 0 0 0 1 1 0 0 1 0 0 0 0 1 0 1 0 0 1 1 0 0 0 1 1 1 0 1 0 0 0 0 1 0 0 1 0 1 0 1 0 0 1 0 1 1 0 1 1 0 0 0 1 1 0 1 0 1 1 1 0 0 1 1 1 1 1 0 0 0 1 1 0 0 1 0 1 0 0 1 1 1 0 1 0 0 1 0 1 0 1 1 0 1 1 0 1 0 1 1 1 1 1 0 0 0 1 1 0 0 1 1 1 0 1 0 1 1 0 1 1 1 1 1 0 0 1 1 1 0 1 1 1 1 1 0 1 1 1 1 1
V
2 32 74
3 0 0 1 0 1 1
V
2 32 88
3 0 0 1 0 1 1
V
2 32 80
3 0 0 1 0 1 1
V
2 32 82
3 0 0 1 0 1 1
V
5 33 75 89 81 83
31 0 0 0 0 0 0 0 0 0 1 0 0 0 1 0 0 0 0 1 1 0 0 1 0 0 0 0 1 0 1 0 0 1 1 0 0 0 1 1 1 0 1 0 0 0 0 1 0 0 1 0 1 0 1 0 0 1 0 1 1 0 1 1 0 0 0 1 1 0 1 0 1 1 1 0 0 1 1 1 1 1 0 0 0 1 1 0 0 1 0 1 0 0 1 1 1 0 1 0 0 1 0 1 0 1 1 0 1 1 0 1 0 1 1 1 1 1 0 0 0 1 1 0 0 1 1 1 0 1 0 1 1 0 1 1 1 1 1 0 0 1 1 1 0 1 1 1 1 1 0 1 1 1 1 1
V
2 33 75
3 0 0 1 0 1 1
V
2 33 89
3 0 0 1 0 1 1
V
2 33 81
3 0 0 1 0 1 1
V
2 33 83
3 0 0 1 0 1 1
V
5 34 76 90 82 84
31 0 0 0 0 0 0 0 0 0 1 0 0 0 1 0 0 0 0 1 1 0 0 1 0 0 0 0 1 0 1 0 0 1 1 0 0 0 1 1 1 0 1 0 0 0 0 1 0 0 1 0 1 0 1 0 0 1 0 1 1 0 1 1 0 0 0 1 1 0 1 0 1 1 1 0 0 1 1 1 1 1 0 0 0 1 1 0 0 1 0 1 0 0 1 1 1 0 1 0 0 1 0 1 0 1 1 0 1 1 0 1 0 1 1 1 1 1 0 0 0 1 1 0 0 1 1 1 0 1 0 1 1 0 1 1 1 1 1 0 0 1 1 1 0 1 1 1 1 1 0 1 1 1 1 1
V
2 34 76
3 0 0 1 0 1 1
V
2 34 90
3 0 0 1 0 1 1
V
2 34 82
3 0 0 1 0 1 1
V
2 34 84
3 0 0 1 0 1 1
V
4 35 77 91 83
15 0 0 0 0 0 0 0 1 0 0 1 0 0 0 1 1 0 1 0 0 0 1 0 1 0 1 1 0 0 1 1 1 1 0 0 1 1 0 1 0 1 0 1 1 1 1 0 0 1 1 0 1 1 1 1 0 1 1 1 1
V
2 35 77
3 0 0 1 0 1 1
V
2 35 91
3 0 0 1 0 1 1
V
2 35 83
3 0 0 1 0 1 1
V
4 36 78 92 86
15 0 0 0 0 0 0 0 1 0 0 1 0 0 0 1 1 0 1 0 0 0 1 0 1 0 1 1 0 0 1 1 1 1 0 0 1 1 0 1 0 1 0 1 1 1 1 0 0 1 1 0 1 1 1 1 0 1 1 1 1
V
2 36 78
3 0 0 1 0 1 1
V
2 36 92
3 0 0 1 0 1 1
V
2 36 86
3 0 0 1 0 1 1
V
5 37 79 93 85 87
31 0 0 0 0 0 0 0 0 0 1 0 0 0 1 0 0 0 0 1 1 0 0 1 0 0 0 0 1 0 1 0 0 1 1 0 0 0 1 1 1 0 1 0 0 0 0 1 0 0 1 0 1 0 1 0 0 1 0 1 1 0 1 1 0 0 0 1 1 0 1 0 1 1 1 0 0 1 1 1 1 1 0 0 0 1 1 0 0 1 0 1 0 0 1 1 1 0 1 0 0 1 0 1 0 1 1 0 1 1 0 1 0 1 1 1 1 1 0 0 0 1 1 0 0 1 1 1 0 1 0 1 1 0 1 1 1 1 1 0 0 1 1 1 0 1 1 1 1 1 0 1 1 1 1 1
V
2 37 79
3 0 0 1 0 1 1
V
2 37 93
3 0 0 1 0 1 1
V
2 37 85
3 0 0 1 0 1 1
V
2 37 87
3 0 0 1 0 1 1
V
5 38 80 94 86 88
31 0 0 0 0 0 0 0 0 0 1 0 0 0 1 0 0 0 0 1 1 0 0 1 0 0 0 0 1 0 1 0 0 1 1 0 0 0 1 1 1 0 1 0 0 0 0 1 0 0 1 0 1 0 1 0 0 1 0 1 1 0 1 1 0 0 0 1 1 0 1 0 1 1 1 0 0 1 1 1 1 1 0 0 0 1 1 0 0 1 0 1 0 0 1 1 1 0 1 0 0 1 0 1 0 1 1 0 1 1 0 1 0 1 1 1 1 1 0 0 0 1 1 0 0 1 1 1 0 1 0 1 1 0 1 1 1 1 1 0 0 1 1 1 0 1 1 1 1 1 0 1 1 1 1 1
V
2 38 80
3 0 0 1 0 1 1
V
2 38 94
3 0 0 1 0 1 1
V
2 38 86
3 0 0 1 0 1 1
V
2 38 88
3 0 0 1 0 1 1
V
5 39 81 95 87 89
31 0 0 0 0 0 0 0 0 0 1 0 0 0 1 0 0 0 0 1 1 0 0 1 0 0 0 0 1 0 1 0 0 1 1 0 0 0 1 1 1 0 1 0 0 0 0 1 0 0 1 0 1 0 1 0 0 1 0 1 1 0 1 1 0 0 0 1 1 0 1 0 1 1 1 0 0 1 1 1 1 1 0 0 0 1 1 0 0 1 0 1 0 0 1 1 1 0 1 0 0 1 0 1 0 1 1 0 1 1 0 1 0 1 1 1 1 1 0 0 0 1 1 0 0 1 1 1 0 1 0 1 1 0 1 1 1 1 1 0 0 1 1 1 0 1 1 1 1 1 0 1 1 1 1 1
V
2 39 81
3 0 0 1 0 1 1
V
2 39 95
3 0 0 1 0 1 1
V
2 39 87
3 0 0 1 0 1 1
V
2 39 89
3 0 0 1 0 1 1
V
5 40 82 96 88 90
31 0 0 0 0 0 0 0 0 0 1 0 0 0 1 0 0 0 0 1 1 0 0 1 0 0 0 0 1 0 1 0 0 1 1 0 0 0 1 1 1 0 1 0 0 0 0 1 0 0 1 0 1 0 1 0 0 1 0 1 1 0 1 1 0 0 0 1 1 0 1 0 1 1 1 0 0 1 1 1 1 1 0 0 0 1 1 0 0 1 0 1 0 0 1 1 1 0 1 0 0 1 0 1 0 1 1 0 1 1 0 1 0 1 1 1 1 1 0 0 0 1 1 0 0 1 1 1 0 1 0 1 1 0 1 1 1 1 1 0 0 1 1 1 0 1 1 1 1 1 0 1 1 1 1 1
V
2 40 82
3 0 0 1 0 1 1
V
2 40 96
3 0 0 1 0 1 1
V
2 40 88
3 0 0 1 0 1 1
V
2 40 90
3 0 0 1 0 1 1
V
5 41 83 97 89 91
31 0 0 0 0 0 0 0 0 0 1 0 0 0 1 0 0 0 0 1 1 0 0 1 0 0 0 0 1 0 1 0 0 1 1 0 0 0 1 1 1 0 1 0 0 0 0 1 0 0 1 0 1 0 1 0 0 1 0 1 1 0 1 1 0 0 0 1 1 0 1 0 1 1 1 0 0 1 1 1 1 1 0 0 0 1 1 0 0 1 0 1 0 0 1 1 1 0 1 0 0 1 0 1 0 1 1 0 1 1 0 1 0 1 1 1 1 1 0 0 0 1 1 0 0 1 1 1 0 1 0 1 1 0 1 1 1 1 1 0 0 1 1 1 0 1 1 1 1 1 0 1 1 1 1 1
V
2 41 83
3 0 0 1 0 1 1
V
2 41 97
3 0 0 1 0 1 1
V
2 41 89
3 0 0 1 0 1 1
V
2 41 91
3 0 0 1 0 1 1
V
4 42 84 98 90
15 0 0 0 0 0 0 0 1 0 0 1 0 0 0 1 1 0 1 0 0 0 1 0 1 0 1 1 0 0 1 1 1 1 0 0 1 1 0 1 0 1 0 1 1 1 1 0 0 1 1 0 1 1 1 1 0 1 1 1 1
V
2 42 84
3 0 0 1 0 1 1
V
2 42 98
3 0 0 1 0 1 1
V
2 42 90
3 0 0 1 0 1 1
V
3 43 85 93
7 0 0 0 0 0 1 0 1 0 0 1 1 1 0 1 1 1 0 1 1 1
V
2 43 85
3 0 0 1 0 1 1
V
2 43 93
3 0 0 1 0 1 1
V
4 44 86 92 94
15 0 0 0 0 0 0 0 1 0 0 1 0 0 0 1 1 0 1 0 0 0 1 0 1 0 1 1 0 0 1 1 1 1 0 0 1 1 0 1 0 1 0 1 1 1 1 0 0 1 1 0 1 1 1 1 0 1 1 1 1
V
2 44 86
3 0 0 1 0 1 1
V
2 44 92
3 0 0 1 0 1 1
V
2 44 94
3 0 0 1 0 1 1
V
4 45 87 93 95
15 0 0 0 0 0 0 0 1 0 0 1 0 0 0 1 1 0 1 0 0 0 1 0 1 0 1 1 0 0 1 1 1 1 0 0 1 1 0 1 0 1 0 1 1 1 1 0 0 1 1 0 1 1 1 1 0 1 1 1 1
V
2 45 87
3 0 0 1 0 1 1
V
2 45 93
3 0 0 1 0 1 1
V
2 45 95
3 0 0 1 0 1 1
V
4 46 88 94 96
15 0 0 0 0 0 0 0 1 0 0 1 0 0 0 1 1 0 1 0 0 0 1 0 1 0 1 1 0 0 1 1 1 1 0 0 1 1 0 1 0 1 0 1 1 1 1 0 0 1 1 0 1 1 1 1 0 1 1 1 1
V
2 46 88
3 0 0 1 0 1 1
V
2 46 94
3 0 0 1 0 1 1
V
2 46 96
3 0 0 1 0 1 1
V
4 47 89 95 97
15 0 0 0 0 0 0 0 1 0 0 1 0 0 0 1 1 0 1 0 0 0 1 0 1 0 1 1 0 0 1 1 1 1 0 0 1 1 0 1 0 1 0 1 1 1 1 0 0 1 1 0 1 1 1 1 0 1 1 1 1
V
2 47 89
3 0 0 1 0 1 1
V
2 47 95
3 0 0 1 0 1 1
V
2 47 97
3 0 0 1 0 1 1
V
4 48 90 96 98
15 0 0 0 0 0 0 0 1 0 0 1 0 0 0 1 1 0 1 0 0 0 1 0 1 0 1 1 0 0 1 1 1 1 0 0 1 1 0 1 0 1 0 1 1 1 1 0 0 1 1 0 1 1 1 1 0 1 1 1 1
V
2 48 90
3 0 0 1 0 1 1
V
2 48 96
3 0 0 1 0 1 1
V
2 48 98
3 0 0 1 0 1 1
V
3 49 91 97
7 0 0 0 0 0 1 0 1 0 0 1 1 1 0 1 1 1 0 1 1 1
V
2 49 91
3 0 0 1 0 1 1
V
2 49 97
3 0 0 1 0 1 1
V
1 1
1 0
V
1 8
1 0
V
1 15
1 1
V
1 71
1 1
