tmp.out
3
2 0 1
2 0 1
2 0 1
3
V
1 1
1 0
V
2 1 2
3 0 0 0 1 1 0
V
2 1 3
3 0 0 0 1 1 1
